VER
4

OBJSENSE
MIN


QKDCONES
1 8
4 1 4 4 0
0 0 0 1.0
0 1 1 1.0
0 2 2 1.0
0 3 3 1.0
4 2 4 4 0
0 0 0 1.0
0 1 1 1.0
1 2 2 1.0
1 3 3 1.0

VAR
11 1
@0:SVECQKD 11

CON
7 1
L= 7

OBJACOORD
1
0 1.0

ACOORD
37
0 1 1.0
1 3 1.0
2 6 1.0
3 1 0.25
3 2 0.3535533905932738
3 3 0.25
3 4 0.3535533905932738
3 5 0.3535533905932738
3 6 0.25
3 7 0.3535533905932738
3 8 0.3535533905932738
3 9 0.3535533905932738
3 10 0.25
4 1 0.25
4 2 -0.3535533905932738
4 3 0.25
4 4 0.3535533905932738
4 5 -0.3535533905932738
4 6 0.25
4 7 -0.3535533905932738
4 8 0.3535533905932738
4 9 -0.3535533905932738
4 10 0.25
5 1 0.25
5 2 0.3535533905932738
5 3 0.25
5 4 -0.3535533905932738
5 5 -0.3535533905932738
5 6 0.25
5 7 -0.3535533905932738
5 8 -0.3535533905932738
5 9 0.3535533905932738
5 10 0.25
6 1 1.0
6 3 1.0
6 6 1.0
6 10 1.0

BCOORD
7
0 0.4875
1 0.012500000000000011
2 0.012500000000000011
3 0.4875
4 0.012499999999999997
5 0.012499999999999997
6 1.0
